189
146
58
72
205
102
12
36
46
191
44
167
68
51
74
15
342
28
115
115
58
142
253
136
67
40
177
35
98
263
205
176
72
143
38
87
76
155
175
228
192
136
161
59
176
72
76
251
129
188
118
130
66
321
279
128
260
207
85
228
319
15
59
39
269
12
145
303
142
55
34
0
64
100
189
325
143
180
182
57
324
27
125
110
31
13
189
117
110
140
31
143
338
29
158
118
37
149
37
193
